experiment/data/hgs-res/Vrp-Set-A-n37/Vrp-Set-A-n37-hgs/0.hgs1.vrp
NAME : 0
COMMENT : CVRP Instance
TYPE : CVRP
DIMENSION : 37
EDGE_WEIGHT_TYPE : EUC_2D
CAPACITY : 100
NODE_COORD_SECTION
1	38.0	46.0
2	59.0	46.0
3	96.0	42.0
4	47.0	61.0
5	26.0	15.0
6	66.0	6.0
7	96.0	7.0
8	37.0	25.0
9	68.0	92.0
10	78.0	84.0
11	82.0	28.0
12	93.0	90.0
13	74.0	42.0
14	60.0	20.0
15	78.0	58.0
16	36.0	48.0
17	45.0	36.0
18	73.0	57.0
19	10.0	91.0
20	98.0	51.0
21	92.0	62.0
22	43.0	42.0
23	53.0	25.0
24	78.0	65.0
25	72.0	79.0
26	37.0	88.0
27	16.0	73.0
28	75.0	96.0
29	11.0	66.0
30	9.0	49.0
31	25.0	72.0
32	8.0	68.0
33	12.0	61.0
34	50.0	2.0
35	26.0	54.0
36	18.0	89.0
37	22.0	53.0
DEMAND_SECTION
1	0
2	16
3	18
4	1
5	13
6	8
7	23
8	7
9	27
10	1
11	3
12	6
13	24
14	19
15	2
16	5
17	16
18	7
19	4
20	22
21	7
22	23
23	16
24	2
25	2
26	9
27	2
28	12
29	1
30	9
31	23
32	6
33	19
34	7
35	7
36	20
37	20
DEPOT_SECTION
1
-1
EOF
