experiment/data/hgs-res/Vrp-Set-A-n37/Vrp-Set-A-n37-hgs/0.hgs1.log
=========== Algorithm Parameters =================
---- nbGranular        is set to 20
---- mu                is set to 25
---- lambda            is set to 40
---- nbElite           is set to 4
---- nbClose           is set to 5
---- targetFeasible    is set to 0.2
---- seed              is set to 1234
---- nbIter            is set to 20000
---- timeLimit         is set to 0
---- useSwapStar       is set to 1
==================================================
----- READING INSTANCE: baseline_results/cvrp_hgs/Vrp-Set-A-n37/Vrp-Set-A-n37-hgs/0.hgs1.vrp
----- FLEET SIZE WAS NOT SPECIFIED: DEFAULT INITIALIZATION TO 9 VEHICLES
----- INSTANCE SUCCESSFULLY LOADED WITH 36 CLIENTS AND 9 VEHICLES
----- BUILDING INITIAL POPULATION
----- STARTING GENETIC ALGORITHM
It      0      2 | T(s) 0.03 | Feas 52 672.47 682.59 | Inf 12 685.89 701.43 | Div 0.25 0.34 | Feas 0.88 1.00 | Pen 3.78 0.85
It    500    502 | T(s) 0.13 | Feas 46 672.47 679.02 | Inf 34 676.58 682.56 | Div 0.25 0.32 | Feas 0.58 1.00 | Pen 1.68 0.38
It   1000   1002 | T(s) 0.26 | Feas 38 672.47 683.01 | Inf 37 669.69 673.19 | Div 0.32 0.31 | Feas 0.21 1.00 | Pen 1.03 0.17
It   1500   1502 | T(s) 0.39 | Feas 45 672.47 679.34 | Inf 27 669.69 677.08 | Div 0.26 0.38 | Feas 0.22 1.00 | Pen 1.03 0.10
It   2000   2002 | T(s) 0.53 | Feas 36 672.47 685.92 | Inf 58 669.69 671.75 | Div 0.34 0.23 | Feas 0.22 1.00 | Pen 1.03 0.10
It   2500   2502 | T(s) 0.66 | Feas 49 672.47 677.81 | Inf 52 669.69 671.18 | Div 0.24 0.22 | Feas 0.19 1.00 | Pen 1.03 0.10
It   3000   3002 | T(s) 0.80 | Feas 39 672.47 683.37 | Inf 43 670.31 673.41 | Div 0.31 0.25 | Feas 0.03 1.00 | Pen 1.07 0.10
It   3500   3502 | T(s) 0.95 | Feas 49 672.47 678.56 | Inf 33 670.64 676.45 | Div 0.25 0.34 | Feas 0.17 1.00 | Pen 1.09 0.10
It   4000   4002 | T(s) 1.08 | Feas 38 672.47 679.96 | Inf 63 671.30 673.14 | Div 0.31 0.21 | Feas 0.34 1.00 | Pen 1.14 0.10
It   4500   4502 | T(s) 1.23 | Feas 61 672.47 677.02 | Inf 25 671.99 682.22 | Div 0.16 0.38 | Feas 0.08 1.00 | Pen 1.18 0.10
It   5000   5002 | T(s) 1.36 | Feas 42 672.47 679.37 | Inf 51 665.65 667.92 | Div 0.28 0.25 | Feas 0.26 1.00 | Pen 0.87 0.10
It   5500   5502 | T(s) 1.50 | Feas 58 672.47 677.11 | Inf 60 673.08 674.85 | Div 0.20 0.21 | Feas 0.24 1.00 | Pen 1.26 0.10
It   6000   6002 | T(s) 1.64 | Feas 25 672.47 692.99 | Inf 35 670.25 673.36 | Div 0.42 0.29 | Feas 0.24 1.00 | Pen 1.07 0.10
It   6500   6502 | T(s) 1.78 | Feas 37 672.47 682.88 | Inf 31 670.57 677.88 | Div 0.31 0.34 | Feas 0.20 1.00 | Pen 1.09 0.10
It   7000   7002 | T(s) 1.92 | Feas 41 672.47 681.70 | Inf 59 671.23 672.92 | Div 0.30 0.21 | Feas 0.25 1.00 | Pen 1.13 0.10
It   7500   7502 | T(s) 2.06 | Feas 49 672.47 679.15 | Inf 48 671.57 674.04 | Div 0.25 0.25 | Feas 0.18 1.00 | Pen 1.16 0.10
It   8000   8002 | T(s) 2.20 | Feas 56 672.47 673.44 | Inf 44 671.92 674.76 | Div 0.09 0.28 | Feas 0.23 1.00 | Pen 1.18 0.10
It   8500   8502 | T(s) 2.34 | Feas 48 672.47 678.54 | Inf 36 672.27 675.93 | Div 0.24 0.30 | Feas 0.19 1.00 | Pen 1.20 0.10
It   9000   9002 | T(s) 2.47 | Feas 65 672.47 674.61 | Inf 62 669.56 671.67 | Div 0.11 0.22 | Feas 0.19 1.00 | Pen 1.02 0.10
It   9500   9502 | T(s) 2.61 | Feas 47 672.47 679.97 | Inf 55 669.87 671.92 | Div 0.26 0.23 | Feas 0.19 1.00 | Pen 1.04 0.10
It  10000  10002 | T(s) 2.75 | Feas 35 672.47 680.98 | Inf 41 673.24 676.70 | Div 0.30 0.27 | Feas 0.15 1.00 | Pen 1.28 0.10
It  10500  10502 | T(s) 2.88 | Feas 30 672.47 686.69 | Inf 60 670.50 672.53 | Div 0.37 0.22 | Feas 0.19 1.00 | Pen 1.09 0.10
It  11000  11002 | T(s) 3.02 | Feas 55 672.47 676.20 | Inf 64 673.41 675.24 | Div 0.19 0.21 | Feas 0.13 1.00 | Pen 1.30 0.10
It  11500  11502 | T(s) 3.16 | Feas 25 672.47 691.69 | Inf 33 671.16 675.67 | Div 0.42 0.32 | Feas 0.21 1.00 | Pen 1.13 0.10
It  12000  12002 | T(s) 3.30 | Feas 29 672.47 688.41 | Inf 52 668.62 670.63 | Div 0.39 0.24 | Feas 0.26 1.00 | Pen 0.96 0.10
It  12500  12502 | T(s) 3.45 | Feas 30 672.47 685.94 | Inf 57 671.50 673.24 | Div 0.37 0.22 | Feas 0.19 1.00 | Pen 1.15 0.10
It  13000  13002 | T(s) 3.59 | Feas 44 672.47 680.06 | Inf 39 669.20 671.86 | Div 0.28 0.28 | Feas 0.27 1.00 | Pen 1.00 0.10
It  13500  13502 | T(s) 3.72 | Feas 61 672.47 673.37 | Inf 39 669.50 671.85 | Div 0.08 0.26 | Feas 0.18 1.00 | Pen 1.02 0.10
It  14000  14002 | T(s) 3.86 | Feas 52 672.47 676.24 | Inf 29 669.81 676.00 | Div 0.15 0.34 | Feas 0.17 1.00 | Pen 1.04 0.10
It  14500  14502 | T(s) 4.00 | Feas 57 672.47 674.60 | Inf 29 669.81 675.14 | Div 0.12 0.34 | Feas 0.16 1.00 | Pen 1.04 0.10
It  15000  15002 | T(s) 4.13 | Feas 63 672.47 674.11 | Inf 51 673.20 675.67 | Div 0.09 0.17 | Feas 0.41 1.00 | Pen 1.27 0.10
It  15500  15502 | T(s) 4.27 | Feas 64 672.47 674.45 | Inf 26 670.44 678.54 | Div 0.11 0.38 | Feas 0.25 1.00 | Pen 1.08 0.10
It  16000  16002 | T(s) 4.40 | Feas 58 672.47 677.27 | Inf 45 670.44 674.21 | Div 0.20 0.28 | Feas 0.19 1.00 | Pen 1.08 0.10
It  16500  16502 | T(s) 4.54 | Feas 47 672.47 677.81 | Inf 40 670.76 673.28 | Div 0.23 0.28 | Feas 0.20 1.00 | Pen 1.10 0.10
It  17000  17002 | T(s) 4.68 | Feas 59 672.47 674.13 | Inf 35 671.09 676.05 | Div 0.11 0.32 | Feas 0.18 1.00 | Pen 1.12 0.10
It  17500  17502 | T(s) 4.81 | Feas 30 672.47 685.44 | Inf 25 671.43 680.76 | Div 0.36 0.39 | Feas 0.25 1.00 | Pen 1.15 0.10
It  18000  18002 | T(s) 4.95 | Feas 58 672.47 675.86 | Inf 35 669.44 673.06 | Div 0.15 0.31 | Feas 0.31 1.00 | Pen 1.01 0.10
It  18500  18502 | T(s) 5.09 | Feas 62 672.47 673.14 | Inf 36 669.74 673.70 | Div 0.05 0.31 | Feas 0.18 1.00 | Pen 1.03 0.10
It  19000  19002 | T(s) 5.23 | Feas 44 672.47 678.50 | Inf 32 670.37 674.97 | Div 0.26 0.31 | Feas 0.01 1.00 | Pen 1.08 0.10
It  19500  19502 | T(s) 5.36 | Feas 49 672.47 677.30 | Inf 47 671.02 673.72 | Div 0.21 0.27 | Feas 0.36 1.00 | Pen 1.12 0.10
----- GENETIC ALGORITHM FINISHED AFTER 20000 ITERATIONS. TIME SPENT: 5.50352
----- WRITING BEST SOLUTION IN : baseline_results/cvrp_hgs/Vrp-Set-A-n37/Vrp-Set-A-n37-hgs/0.hgs1.tour
