experiment/data/hgs-res/Vrp-Set-A-n37/Vrp-Set-A-n37-hgs/0.hgs1.tour
Route #1: 7 4 33 5 6 10 13 22
Route #2: 16 21
Route #3: 17 14 23 20 19 2 12 1
Route #4: 15 26 18 35 25 8 27 11 9 24 3
Route #5: 30 31 28 32 29 36 34
Cost 672.465
